p wcnf 675 2135 84822
84822 -61 -62 0
84822 -61 -63 0
84822 -62 -63 0
84822 61 62 63 0
84822 -77 -78 0
84822 -77 -79 0
84822 -78 -79 0
84822 77 78 79 0
84822 -105 -106 0
84822 -105 -107 0
84822 -106 -107 0
84822 105 106 107 0
84822 -125 -126 0
84822 -125 -127 0
84822 -126 -127 0
84822 125 126 127 0
84822 -165 -166 0
84822 -165 -167 0
84822 -166 -167 0
84822 165 166 167 0
84822 -169 -170 0
84822 -169 -171 0
84822 -170 -171 0
84822 169 170 171 0
84822 -201 -202 0
84822 -201 -203 0
84822 -202 -203 0
84822 201 202 203 0
84822 -205 -206 0
84822 -205 -207 0
84822 -206 -207 0
84822 205 206 207 0
84822 -209 -210 0
84822 -209 -211 0
84822 -210 -211 0
84822 209 210 211 0
84822 -213 -214 0
84822 -213 -215 0
84822 -214 -215 0
84822 213 214 215 0
84822 -271 -272 0
84822 -271 -273 0
84822 -272 -273 0
84822 271 272 273 0
84822 -275 -276 0
84822 -275 -277 0
84822 -276 -277 0
84822 275 276 277 0
84822 -342 -343 0
84822 -342 -344 0
84822 -343 -344 0
84822 342 343 344 0
84822 -361 -362 0
84822 -361 -363 0
84822 -362 -363 0
84822 361 362 363 0
84822 -412 -413 0
84822 -412 -414 0
84822 -413 -414 0
84822 412 413 414 0
84822 -416 -417 0
84822 -416 -418 0
84822 -417 -418 0
84822 416 417 418 0
84822 -440 -441 0
84822 -440 -442 0
84822 -441 -442 0
84822 440 441 442 0
84822 -444 -445 0
84822 -444 -446 0
84822 -445 -446 0
84822 444 445 446 0
84822 -448 -449 0
84822 -448 -450 0
84822 -449 -450 0
84822 448 449 450 0
84822 -452 -453 0
84822 -452 -454 0
84822 -453 -454 0
84822 452 453 454 0
84822 -480 -481 0
84822 -480 -482 0
84822 -481 -482 0
84822 480 481 482 0
84822 -484 -485 0
84822 -484 -486 0
84822 -485 -486 0
84822 484 485 486 0
84822 -504 -505 0
84822 -504 -506 0
84822 -505 -506 0
84822 504 505 506 0
84822 -507 -508 0
84822 -507 -509 0
84822 -508 -509 0
84822 507 508 509 0
84822 -520 -521 0
84822 -520 -522 0
84822 -521 -522 0
84822 520 521 522 0
84822 -523 -524 0
84822 -523 -525 0
84822 -524 -525 0
84822 523 524 525 0
84822 -526 -527 0
84822 -526 -528 0
84822 -527 -528 0
84822 526 527 528 0
84822 -529 -530 0
84822 -529 -531 0
84822 -530 -531 0
84822 529 530 531 0
84822 -536 -537 0
84822 -536 -538 0
84822 -537 -538 0
84822 536 537 538 0
84822 -539 -540 0
84822 -539 -541 0
84822 -540 -541 0
84822 539 540 541 0
84822 -548 -549 0
84822 -548 -550 0
84822 -549 -550 0
84822 548 549 550 0
84822 -551 -552 0
84822 -551 -553 0
84822 -552 -553 0
84822 551 552 553 0
84822 -554 -555 0
84822 -554 -556 0
84822 -555 -556 0
84822 554 555 556 0
84822 -557 -558 0
84822 -557 -559 0
84822 -558 -559 0
84822 557 558 559 0
84822 -562 -563 0
84822 -562 -564 0
84822 -563 -564 0
84822 562 563 564 0
84822 -565 -566 0
84822 -565 -567 0
84822 -566 -567 0
84822 565 566 567 0
84822 -570 -571 0
84822 -570 -572 0
84822 -571 -572 0
84822 570 571 572 0
84822 -573 -574 0
84822 -573 -575 0
84822 -574 -575 0
84822 573 574 575 0
84822 -576 -577 0
84822 -576 -578 0
84822 -577 -578 0
84822 576 577 578 0
84822 -589 -590 0
84822 -589 -591 0
84822 -590 -591 0
84822 589 590 591 0
84822 -592 -593 0
84822 -592 -594 0
84822 -593 -594 0
84822 592 593 594 0
84822 -595 -596 0
84822 -595 -597 0
84822 -596 -597 0
84822 595 596 597 0
84822 -598 -599 0
84822 -598 -600 0
84822 -599 -600 0
84822 598 599 600 0
84822 -605 -606 0
84822 -605 -607 0
84822 -606 -607 0
84822 605 606 607 0
84822 -608 -609 0
84822 -608 -610 0
84822 -609 -610 0
84822 608 609 610 0
84822 -617 -618 0
84822 -617 -619 0
84822 -618 -619 0
84822 617 618 619 0
84822 -620 -621 0
84822 -620 -622 0
84822 -621 -622 0
84822 620 621 622 0
84822 -623 -624 0
84822 -623 -625 0
84822 -624 -625 0
84822 623 624 625 0
84822 -626 -627 0
84822 -626 -628 0
84822 -627 -628 0
84822 626 627 628 0
84822 -631 -632 0
84822 -631 -633 0
84822 -632 -633 0
84822 631 632 633 0
84822 -634 -635 0
84822 -634 -636 0
84822 -635 -636 0
84822 634 635 636 0
84822 -639 -640 0
84822 -639 -641 0
84822 -640 -641 0
84822 639 640 641 0
84822 -656 -657 0
84822 -656 -658 0
84822 -657 -658 0
84822 656 657 658 0
84822 -673 -674 0
84822 -673 -675 0
84822 -674 -675 0
84822 673 674 675 0
218 3 -1 0
218 -3 1 0
218 4 -3 0
218 -4 3 0
218 5 -4 0
218 -5 4 0
218 8 -5 0
218 -8 5 0
218 10 -6 0
218 -10 6 0
218 12 -8 0
218 -12 8 0
218 14 -10 0
218 -14 10 0
218 15 -12 0
218 -15 12 0
218 17 -15 0
218 -17 15 0
218 20 -17 0
218 -20 17 0
218 21 -20 0
218 -21 20 0
218 22 -21 0
218 -22 21 0
218 23 -22 0
218 -23 22 0
218 24 -23 0
218 -24 23 0
218 26 -24 0
218 -26 24 0
218 30 -26 0
218 -30 26 0
218 31 -30 0
218 -31 30 0
218 32 -31 0
218 -32 31 0
218 33 -32 0
218 -33 32 0
218 36 -33 0
218 -36 33 0
218 38 -34 0
218 -38 34 0
145 35 -37 0
314 -35 37 0
84822 -673 -37 0
169 -674 -37 0
84822 -675 37 0
84822 -673 38 -37 0
84822 -673 -38 -37 0
84822 -674 38 37 0
84822 -674 -38 -37 0
84822 -675 38 37 0
84822 -675 -38 37 0
84822 55 -40 0
84822 -61 -41 0
246 42 -41 0
190 -42 41 0
246 43 -42 0
190 -43 42 0
84822 67 -43 0
246 44 -43 0
190 -44 43 0
84822 69 -44 0
84822 71 -45 0
246 46 -45 0
190 -46 45 0
246 47 -46 0
190 -47 46 0
237 48 -47 0
199 -48 47 0
84822 -77 -48 0
228 50 -49 0
208 -50 49 0
84822 83 -50 0
84822 -87 51 0
84822 52 51 0
84822 87 52 51 0
84822 87 -52 -51 0
84822 -87 52 51 0
84822 -87 -52 51 0
218 54 -52 0
218 -54 52 0
84822 -95 55 0
84822 56 55 0
84822 95 56 55 0
84822 95 -56 -55 0
84822 -95 56 55 0
84822 -95 -56 55 0
218 58 -56 0
218 -58 56 0
218 60 -58 0
218 -60 58 0
218 64 -60 0
218 -64 60 0
218 66 -64 0
218 -66 64 0
84822 -111 65 0
84822 66 65 0
84822 111 66 65 0
84822 111 -66 -65 0
84822 -111 66 65 0
84822 -111 -66 65 0
218 68 -66 0
218 -68 66 0
218 70 -68 0
218 -70 68 0
84822 117 -69 0
84822 70 -69 0
84822 117 70 -69 0
84822 117 -70 -69 0
84822 -117 70 -69 0
84822 -117 -70 69 0
84822 -119 71 0
84822 72 71 0
84822 119 72 71 0
84822 119 -72 -71 0
84822 -119 72 71 0
84822 -119 -72 71 0
218 74 -72 0
218 -74 72 0
84822 -121 73 0
84822 74 73 0
84822 121 74 73 0
84822 121 -74 -73 0
84822 -121 74 73 0
84822 -121 -74 73 0
218 76 -74 0
218 -76 74 0
84822 123 -75 0
84822 76 -75 0
84822 123 76 -75 0
84822 123 -76 -75 0
84822 -123 76 -75 0
84822 -123 -76 75 0
218 80 -76 0
218 -80 76 0
84822 -131 81 0
84822 82 81 0
84822 131 82 81 0
84822 131 -82 -81 0
84822 -131 82 81 0
84822 -131 -82 81 0
218 84 -82 0
218 -84 82 0
218 86 -84 0
218 -86 84 0
218 90 -88 0
218 -90 88 0
218 94 -90 0
218 -94 90 0
218 96 -94 0
218 -96 94 0
218 98 -96 0
218 -98 96 0
218 102 -98 0
218 -102 98 0
218 104 -100 0
218 -104 100 0
218 108 -102 0
218 -108 102 0
218 110 -104 0
218 -110 104 0
218 112 -108 0
218 -112 108 0
218 114 -112 0
218 -114 112 0
218 118 -114 0
218 -118 114 0
218 122 -120 0
218 -122 120 0
218 124 -122 0
218 -124 122 0
218 128 -124 0
218 -128 124 0
218 134 -132 0
218 -134 132 0
218 138 -134 0
218 -138 134 0
218 140 -136 0
218 -140 136 0
276 -673 -140 0
84822 -673 -139 0
108 -674 -139 0
84822 -675 139 0
276 140 139 0
84822 -673 140 -139 0
84822 -673 -140 -139 0
84822 -674 140 139 0
84822 -674 -140 -139 0
84822 -675 140 139 0
84822 -675 -140 139 0
218 146 -142 0
218 -146 142 0
218 148 -144 0
218 -148 144 0
218 150 -146 0
218 -150 146 0
218 152 -148 0
218 -152 148 0
218 154 -150 0
218 -154 150 0
218 156 -152 0
218 -156 152 0
218 158 -154 0
218 -158 154 0
218 160 -156 0
218 -160 156 0
218 162 -158 0
218 -162 158 0
218 164 -160 0
218 -164 160 0
218 168 -162 0
218 -168 162 0
218 172 -164 0
218 -172 164 0
218 174 -168 0
218 -174 168 0
218 176 -172 0
218 -176 172 0
218 178 -174 0
218 -178 174 0
218 180 -176 0
218 -180 176 0
218 182 -178 0
218 -182 178 0
218 184 -180 0
218 -184 180 0
218 186 -182 0
218 -186 182 0
218 188 -184 0
218 -188 184 0
218 190 -186 0
218 -190 186 0
218 192 -188 0
218 -192 188 0
218 194 -190 0
218 -194 190 0
218 196 -192 0
218 -196 192 0
218 198 -194 0
218 -198 194 0
218 200 -196 0
218 -200 196 0
218 204 -198 0
218 -204 198 0
218 208 -200 0
218 -208 200 0
218 212 -204 0
218 -212 204 0
218 216 -208 0
218 -216 208 0
218 218 -212 0
218 -218 212 0
218 220 -216 0
218 -220 216 0
218 222 -218 0
218 -222 218 0
218 224 -220 0
218 -224 220 0
218 226 -222 0
218 -226 222 0
218 228 -224 0
218 -228 224 0
218 230 -226 0
218 -230 226 0
218 232 -228 0
218 -232 228 0
84822 -570 -229 0
84822 -572 229 0
84822 -570 230 -229 0
84822 -570 -230 -229 0
84822 -571 230 229 0
84822 -571 -230 -229 0
84822 -572 230 229 0
84822 -572 -230 229 0
84822 -639 -231 0
84822 -641 231 0
84822 -639 232 -231 0
84822 -639 -232 -231 0
84822 -640 232 231 0
84822 -640 -232 -231 0
84822 -641 232 231 0
84822 -641 -232 231 0
218 247 -245 0
218 -247 245 0
218 248 -246 0
218 -248 246 0
218 250 -247 0
218 -250 247 0
218 252 -248 0
218 -252 248 0
218 253 -250 0
218 -253 250 0
218 254 -252 0
218 -254 252 0
218 256 -253 0
218 -256 253 0
218 258 -254 0
218 -258 254 0
218 259 -256 0
218 -259 256 0
218 260 -258 0
218 -260 258 0
218 262 -259 0
218 -262 259 0
218 264 -260 0
218 -264 260 0
218 265 -262 0
218 -265 262 0
218 266 -264 0
218 -266 264 0
218 267 -265 0
218 -267 265 0
218 268 -266 0
218 -268 266 0
218 269 -267 0
218 -269 267 0
218 270 -268 0
218 -270 268 0
218 274 -269 0
218 -274 269 0
218 278 -270 0
218 -278 270 0
218 279 -274 0
218 -279 274 0
218 280 -278 0
218 -280 278 0
218 281 -279 0
218 -281 279 0
218 282 -280 0
218 -282 280 0
218 284 -281 0
218 -284 281 0
218 286 -282 0
218 -286 282 0
218 288 -284 0
218 -288 284 0
218 290 -286 0
218 -290 286 0
218 292 -288 0
218 -292 288 0
218 294 -290 0
218 -294 290 0
218 295 -292 0
218 -295 292 0
218 296 -294 0
218 -296 294 0
218 298 -295 0
218 -298 295 0
218 300 -296 0
218 -300 296 0
218 301 -298 0
218 -301 298 0
218 302 -300 0
218 -302 300 0
218 304 -301 0
218 -304 301 0
218 306 -302 0
218 -306 302 0
84822 -570 -303 0
84822 -572 303 0
84822 -570 304 -303 0
84822 -570 -304 -303 0
84822 -571 304 303 0
84822 -571 -304 -303 0
84822 -572 304 303 0
84822 -572 -304 303 0
84822 -639 -305 0
84822 -641 305 0
84822 -639 306 -305 0
84822 -639 -306 -305 0
84822 -640 306 305 0
84822 -640 -306 -305 0
84822 -641 306 305 0
84822 -641 -306 305 0
436 308 -307 0
84822 330 -308 0
436 309 -308 0
84822 332 -309 0
436 310 -309 0
84822 334 -310 0
436 312 -310 0
436 313 -312 0
84822 340 -313 0
436 314 -313 0
84822 -342 -314 0
436 315 -314 0
436 316 -315 0
436 317 -316 0
84822 354 -317 0
84822 356 -318 0
218 321 -320 0
218 -321 320 0
218 322 -321 0
218 -322 321 0
218 323 -322 0
218 -323 322 0
218 325 -323 0
218 -325 323 0
218 331 -327 0
218 -331 327 0
218 333 -331 0
218 -333 331 0
218 335 -333 0
218 -335 333 0
218 337 -335 0
218 -337 335 0
218 341 -337 0
218 -341 337 0
218 345 -341 0
218 -345 341 0
218 347 -345 0
218 -347 345 0
218 351 -347 0
218 -351 347 0
218 353 -349 0
218 -353 349 0
218 355 -351 0
218 -355 351 0
218 359 -357 0
218 -359 357 0
218 360 -359 0
218 -360 359 0
218 368 -364 0
218 -368 364 0
218 370 -366 0
218 -370 366 0
218 372 -368 0
218 -372 368 0
218 374 -370 0
218 -374 370 0
218 376 -372 0
218 -376 372 0
218 378 -376 0
218 -378 376 0
84822 -656 -379 0
84822 -658 379 0
84822 -656 380 -379 0
84822 -656 -380 -379 0
84822 -657 380 379 0
84822 -657 -380 -379 0
84822 -658 380 379 0
84822 -658 -380 379 0
218 385 -382 0
218 -385 382 0
218 386 -385 0
218 -386 385 0
218 387 -386 0
218 -387 386 0
218 388 -387 0
218 -388 387 0
218 390 -388 0
218 -390 388 0
218 391 -390 0
218 -391 390 0
218 393 -391 0
218 -393 391 0
218 396 -393 0
218 -396 393 0
218 397 -395 0
218 -397 395 0
218 398 -396 0
218 -398 396 0
218 400 -399 0
218 -400 399 0
218 401 -400 0
218 -401 400 0
218 402 -401 0
218 -402 401 0
218 404 -402 0
218 -404 402 0
218 405 -403 0
218 -405 403 0
218 406 -404 0
218 -406 404 0
218 407 -405 0
218 -407 405 0
820 408 410 0
41 -408 -410 0
467 -656 -411 0
84822 -656 -410 0
199 -657 -410 0
84822 -658 410 0
467 411 410 0
84822 -656 411 -410 0
84822 -656 -411 -410 0
84822 -657 411 410 0
84822 -657 -411 -410 0
84822 -658 411 410 0
84822 -658 -411 410 0
218 421 -415 0
218 -421 415 0
218 423 -419 0
218 -423 419 0
218 425 -421 0
218 -425 421 0
218 427 -423 0
218 -427 423 0
218 429 -425 0
218 -429 425 0
218 431 -427 0
218 -431 427 0
218 433 -429 0
218 -433 429 0
218 435 -431 0
218 -435 431 0
218 437 -433 0
218 -437 433 0
218 439 -435 0
218 -439 435 0
218 443 -437 0
218 -443 437 0
218 447 -439 0
218 -447 439 0
218 451 -443 0
218 -451 443 0
218 455 -447 0
218 -455 447 0
218 457 -451 0
218 -457 451 0
218 459 -455 0
218 -459 455 0
218 461 -457 0
218 -461 457 0
218 463 -459 0
218 -463 459 0
218 469 -465 0
218 -469 465 0
218 471 -467 0
218 -471 467 0
218 473 -469 0
218 -473 469 0
218 475 -471 0
218 -475 471 0
218 477 -473 0
218 -477 473 0
218 479 -475 0
218 -479 475 0
218 483 -477 0
218 -483 477 0
218 487 -479 0
218 -487 479 0
218 489 -483 0
218 -489 483 0
218 491 -487 0
218 -491 487 0
218 493 -489 0
218 -493 489 0
218 495 -491 0
218 -495 491 0
218 497 -493 0
218 -497 493 0
218 499 -495 0
218 -499 495 0
218 501 -497 0
218 -501 497 0
218 503 -499 0
218 -503 499 0
348 -570 -501 0
84822 -570 -500 0
209 -571 -500 0
84822 -572 500 0
348 501 500 0
84822 -570 501 -500 0
84822 -570 -501 -500 0
84822 -571 501 500 0
84822 -571 -501 -500 0
84822 -572 501 500 0
84822 -572 -501 500 0
348 -639 -503 0
84822 -639 -502 0
209 -640 -502 0
84822 -641 502 0
348 503 502 0
84822 -639 503 -502 0
84822 -639 -503 -502 0
84822 -640 503 502 0
84822 -640 -503 -502 0
84822 -641 503 502 0
84822 -641 -503 502 0
84822 145 -1 0
84822 147 1 0
84822 -659 -2 0
84822 -660 2 0
84822 149 -3 0
84822 151 3 0
84822 153 -4 0
84822 155 4 0
84822 -157 -5 0
84822 -159 5 0
33 661 6 0
84822 -661 -6 0
33 662 -6 0
84822 -662 6 0
84822 173 -15 0
84822 175 15 0
84822 181 -20 0
84822 183 20 0
84822 185 -21 0
84822 187 21 0
84822 189 -22 0
84822 191 22 0
84822 193 -23 0
84822 195 23 0
84822 197 -24 0
84822 199 24 0
84822 217 -31 0
84822 219 31 0
84822 221 -32 0
84822 223 32 0
84822 225 -33 0
84822 227 33 0
84822 671 -34 0
84822 672 34 0
84822 53 -39 0
84822 65 -42 0
84822 73 -46 0
84822 75 -47 0
84822 81 -49 0
84822 255 -235 0
84822 257 235 0
84822 -261 -236 0
84822 -263 236 0
84822 283 -239 0
84822 285 239 0
84822 291 -240 0
84822 293 240 0
84822 -504 -245 0
84822 -505 -245 0
84822 -507 245 0
84822 -508 245 0
84822 -573 -246 0
84822 -574 -246 0
84822 -576 246 0
84822 -577 246 0
84822 510 -247 0
84822 511 247 0
84822 579 -248 0
84822 580 248 0
84822 514 -253 0
84822 515 253 0
84822 583 -254 0
84822 584 254 0
84822 518 -259 0
84822 519 259 0
84822 587 -260 0
84822 588 260 0
84822 -526 -265 0
84822 -528 -265 0
84822 -529 265 0
84822 -531 265 0
84822 -595 -266 0
84822 -597 -266 0
84822 -598 266 0
84822 -600 266 0
84822 -532 -267 0
84822 -533 267 0
84822 -601 -268 0
84822 -602 268 0
84822 534 -269 0
84822 535 269 0
84822 603 -270 0
84822 604 270 0
84822 542 -279 0
84822 543 279 0
84822 611 -280 0
84822 612 280 0
84822 544 -281 0
84822 545 281 0
84822 613 -282 0
84822 614 282 0
84822 560 -295 0
84822 561 295 0
84822 629 -296 0
84822 630 296 0
84822 568 -301 0
84822 569 301 0
84822 637 -302 0
84822 638 302 0
84822 326 -307 0
84822 328 307 0
84822 346 -315 0
84822 348 315 0
84822 350 -316 0
84822 352 316 0
84822 367 -321 0
84822 369 321 0
84822 371 -322 0
84822 373 322 0
84822 375 -323 0
84822 472 -360 0
84822 474 360 0
84822 420 -385 0
84822 422 385 0
84822 424 -386 0
84822 426 386 0
84822 428 -387 0
84822 430 387 0
84822 432 -388 0
84822 434 388 0
84822 644 -389 0
84822 645 389 0
84822 -436 -390 0
84822 -438 390 0
84822 -440 -391 0
84822 -442 -391 0
84822 -444 391 0
84822 -446 391 0
84822 456 -396 0
84822 458 396 0
84822 -648 -397 0
84822 -649 397 0
84822 460 -398 0
84822 462 398 0
84822 468 -399 0
84822 470 399 0
84822 472 -400 0
84822 474 400 0
84822 476 -401 0
84822 478 401 0
84822 -480 -402 0
84822 -482 -402 0
84822 -484 402 0
84822 -486 402 0
120 650 403 0
84822 -650 -403 0
120 651 -403 0
84822 -651 403 0
84822 488 -404 0
84822 490 404 0
84822 -652 -405 0
84822 -653 405 0
84822 492 -406 0
84822 494 406 0
84822 654 -407 0
84822 655 407 0
84822 161 -8 -7 0
84822 -161 -8 7 0
84822 8 7 -163 0
84822 8 -7 163 0
84822 663 -10 -9 0
84822 -663 -10 9 0
84822 10 9 -664 0
84822 10 -9 664 0
84822 -165 -12 0
84822 -165 -12 11 0
84822 -165 -12 -11 0
84822 -166 -12 -11 0
84822 -167 -12 11 0
84822 12 -169 0
84822 12 11 -169 0
84822 12 11 -171 0
84822 12 -11 -169 0
84822 12 -11 -170 0
84822 665 -14 -13 0
84822 -665 -14 13 0
84822 14 13 -666 0
84822 14 -13 666 0
84822 177 -17 -16 0
84822 -177 -17 16 0
84822 17 16 -179 0
84822 17 -16 179 0
84822 667 -19 -18 0
84822 -667 -19 18 0
84822 19 18 -668 0
84822 19 -18 668 0
84822 -201 -26 0
84822 -201 -26 25 0
84822 -201 -26 -25 0
84822 -202 -26 -25 0
84822 -203 -26 25 0
84822 26 -205 0
84822 26 25 -205 0
84822 26 25 -207 0
84822 26 -25 -205 0
84822 26 -25 -206 0
84822 669 -28 -27 0
84822 -669 -28 27 0
84822 28 27 -670 0
84822 28 -27 670 0
84822 -209 -30 0
84822 -209 -30 29 0
84822 -209 -30 -29 0
84822 -210 -30 -29 0
84822 -211 -30 29 0
84822 30 -213 0
84822 30 29 -213 0
84822 30 29 -215 0
84822 30 -29 -213 0
84822 30 -29 -214 0
84822 229 -36 -35 0
84822 -229 -36 35 0
84822 36 35 -231 0
84822 36 -35 231 0
84822 89 -54 -53 0
84822 -89 -54 53 0
84822 54 53 -91 0
84822 54 -53 91 0
84822 97 -58 -57 0
84822 -97 -58 57 0
84822 58 57 -99 0
84822 58 -57 99 0
84822 101 -60 -59 0
84822 -101 -60 59 0
84822 60 59 -103 0
84822 60 -59 103 0
84822 -106 -61 0
84822 -107 -61 0
84822 64 -61 0
84822 -105 64 -61 0
84822 -105 -64 -62 0
84822 -105 -64 -63 0
84822 -106 64 -61 0
84822 -106 -64 -61 0
84822 -106 -64 -63 0
84822 -107 64 -61 0
84822 -107 -64 -61 0
84822 -107 -64 -62 0
84822 64 -61 109 0
84822 64 -61 -109 0
84822 64 -62 -109 0
84822 64 -63 109 0
84822 113 -68 -67 0
84822 -113 -68 67 0
84822 68 67 -115 0
84822 68 -67 115 0
84822 -126 -77 0
84822 -127 -77 0
84822 80 -77 0
84822 -125 80 -77 0
84822 -125 -80 -78 0
84822 -125 -80 -79 0
84822 -126 80 -77 0
84822 -126 -80 -77 0
84822 -126 -80 -79 0
84822 -127 80 -77 0
84822 -127 -80 -77 0
84822 -127 -80 -78 0
84822 80 -77 129 0
84822 80 -77 -129 0
84822 80 -78 -129 0
84822 80 -79 129 0
84822 133 -84 -83 0
84822 -133 -84 83 0
84822 84 83 -135 0
84822 84 -83 135 0
84822 137 -86 -85 0
84822 -137 -86 85 0
84822 86 85 -139 0
84822 86 -85 139 0
84822 141 -88 -87 0
84822 -141 -88 87 0
84822 88 87 -143 0
84822 88 -87 143 0
84822 145 -90 -89 0
84822 -145 -90 89 0
84822 90 89 -147 0
84822 90 -89 147 0
84822 659 -92 91 0
84822 -659 -92 -91 0
84822 92 91 660 0
84822 92 -91 -660 0
84822 149 -94 -93 0
84822 -149 -94 93 0
84822 94 93 -151 0
84822 94 -93 151 0
84822 153 -96 -95 0
84822 -153 -96 95 0
84822 96 95 -155 0
84822 96 -95 155 0
84822 157 -98 -97 0
84822 -157 -98 97 0
84822 98 97 -159 0
84822 98 -97 159 0
84822 661 -100 -99 0
84822 -661 -100 99 0
84822 100 99 -662 0
84822 100 -99 662 0
84822 161 -102 -101 0
84822 -161 -102 101 0
84822 102 101 -163 0
84822 102 -101 163 0
84822 663 -104 -103 0
84822 -663 -104 103 0
84822 104 103 -664 0
84822 104 -103 664 0
84822 -165 -108 -106 0
84822 -165 -108 -107 0
84822 -166 -108 -105 0
84822 -166 -108 -107 0
84822 -167 -108 -105 0
84822 -167 -108 -106 0
84822 108 -105 -170 0
84822 108 -105 -171 0
84822 108 -106 -169 0
84822 108 -106 -171 0
84822 108 -107 -169 0
84822 108 -107 -170 0
84822 665 -110 -109 0
84822 -665 -110 109 0
84822 110 109 -666 0
84822 110 -109 666 0
84822 173 -112 -111 0
84822 -173 -112 111 0
84822 112 111 -175 0
84822 112 -111 175 0
84822 177 -114 113 0
84822 -177 -114 -113 0
84822 114 113 179 0
84822 114 -113 -179 0
84822 667 -116 115 0
84822 -667 -116 -115 0
84822 116 115 668 0
84822 116 -115 -668 0
84822 181 -118 -117 0
84822 -181 -118 117 0
84822 118 117 -183 0
84822 118 -117 183 0
84822 189 -120 -119 0
84822 -189 -120 119 0
84822 120 119 -191 0
84822 120 -119 191 0
84822 193 -122 -121 0
84822 -193 -122 121 0
84822 122 121 -195 0
84822 122 -121 195 0
84822 197 -124 -123 0
84822 -197 -124 123 0
84822 124 123 -199 0
84822 124 -123 199 0
84822 -201 -128 -126 0
84822 -201 -128 -127 0
84822 -202 -128 -125 0
84822 -202 -128 -127 0
84822 -203 -128 -125 0
84822 -203 -128 -126 0
84822 128 -125 -206 0
84822 128 -125 -207 0
84822 128 -126 -205 0
84822 128 -126 -207 0
84822 128 -127 -205 0
84822 128 -127 -206 0
84822 669 -130 -129 0
84822 -669 -130 129 0
84822 130 129 -670 0
84822 130 -129 670 0
84822 221 -132 -131 0
84822 -221 -132 131 0
84822 132 131 -223 0
84822 132 -131 223 0
84822 225 -134 -133 0
84822 -225 -134 133 0
84822 134 133 -227 0
84822 134 -133 227 0
84822 671 -136 -135 0
84822 -671 -136 135 0
84822 136 135 -672 0
84822 136 -135 672 0
84822 229 -138 -137 0
84822 -229 -138 137 0
84822 138 137 -231 0
84822 138 -137 231 0
84822 -504 -142 -141 0
84822 -505 -142 -141 0
84822 -506 -142 141 0
84822 142 141 -509 0
84822 142 -141 -507 0
84822 142 -141 -508 0
84822 -573 -144 -143 0
84822 -574 -144 -143 0
84822 -575 -144 143 0
84822 144 143 -578 0
84822 144 -143 -576 0
84822 144 -143 -577 0
84822 510 -146 -145 0
84822 -510 -146 145 0
84822 146 145 -511 0
84822 146 -145 511 0
84822 579 -148 -147 0
84822 -579 -148 147 0
84822 148 147 -580 0
84822 148 -147 580 0
84822 512 -150 -149 0
84822 -512 -150 149 0
84822 150 149 -513 0
84822 150 -149 513 0
84822 581 -152 -151 0
84822 -581 -152 151 0
84822 152 151 -582 0
84822 152 -151 582 0
84822 514 -154 -153 0
84822 -514 -154 153 0
84822 154 153 -515 0
84822 154 -153 515 0
84822 583 -156 -155 0
84822 -583 -156 155 0
84822 156 155 -584 0
84822 156 -155 584 0
84822 516 -158 -157 0
84822 -516 -158 157 0
84822 158 157 -517 0
84822 158 -157 517 0
84822 585 -160 -159 0
84822 -585 -160 159 0
84822 160 159 -586 0
84822 160 -159 586 0
84822 518 -162 -161 0
84822 -518 -162 161 0
84822 162 161 -519 0
84822 162 -161 519 0
84822 587 -164 -163 0
84822 -587 -164 163 0
84822 164 163 -588 0
84822 164 -163 588 0
84822 -520 -168 -165 0
84822 -520 -168 -167 0
84822 -521 -168 -165 0
84822 -521 -168 -166 0
84822 -522 -168 -166 0
84822 -522 -168 -167 0
84822 168 -165 -523 0
84822 168 -165 -524 0
84822 168 -166 -524 0
84822 168 -166 -525 0
84822 168 -167 -523 0
84822 168 -167 -525 0
84822 -589 -172 -169 0
84822 -589 -172 -171 0
84822 -590 -172 -169 0
84822 -590 -172 -170 0
84822 -591 -172 -170 0
84822 -591 -172 -171 0
84822 172 -169 -592 0
84822 172 -169 -593 0
84822 172 -170 -593 0
84822 172 -170 -594 0
84822 172 -171 -592 0
84822 172 -171 -594 0
84822 -526 -174 -173 0
84822 -527 -174 173 0
84822 -528 -174 -173 0
84822 174 173 -530 0
84822 174 -173 -529 0
84822 174 -173 -531 0
84822 -595 -176 -175 0
84822 -596 -176 175 0
84822 -597 -176 -175 0
84822 176 175 -599 0
84822 176 -175 -598 0
84822 176 -175 -600 0
84822 532 -178 -177 0
84822 -532 -178 177 0
84822 178 177 -533 0
84822 178 -177 533 0
84822 601 -180 -179 0
84822 -601 -180 179 0
84822 180 179 -602 0
84822 180 -179 602 0
84822 534 -182 -181 0
84822 -534 -182 181 0
84822 182 181 -535 0
84822 182 -181 535 0
84822 603 -184 -183 0
84822 -603 -184 183 0
84822 184 183 -604 0
84822 184 -183 604 0
84822 -536 -186 -185 0
84822 -537 -186 -185 0
84822 -538 -186 185 0
84822 186 185 -541 0
84822 186 -185 -539 0
84822 186 -185 -540 0
84822 -605 -188 -187 0
84822 -606 -188 -187 0
84822 -607 -188 187 0
84822 188 187 -610 0
84822 188 -187 -608 0
84822 188 -187 -609 0
84822 542 -190 -189 0
84822 -542 -190 189 0
84822 190 189 -543 0
84822 190 -189 543 0
84822 611 -192 -191 0
84822 -611 -192 191 0
84822 192 191 -612 0
84822 192 -191 612 0
84822 544 -194 -193 0
84822 -544 -194 193 0
84822 194 193 -545 0
84822 194 -193 545 0
84822 613 -196 -195 0
84822 -613 -196 195 0
84822 196 195 -614 0
84822 196 -195 614 0
84822 546 -198 197 0
84822 -546 -198 -197 0
84822 198 197 547 0
84822 198 -197 -547 0
84822 615 -200 199 0
84822 -615 -200 -199 0
84822 200 199 616 0
84822 200 -199 -616 0
84822 -548 -204 -202 0
84822 -548 -204 -203 0
84822 -549 -204 -201 0
84822 -549 -204 -203 0
84822 -550 -204 -201 0
84822 -550 -204 -202 0
84822 204 -201 -552 0
84822 204 -201 -553 0
84822 204 -202 -551 0
84822 204 -202 -553 0
84822 204 -203 -551 0
84822 204 -203 -552 0
84822 -617 -208 -206 0
84822 -617 -208 -207 0
84822 -618 -208 -205 0
84822 -618 -208 -207 0
84822 -619 -208 -205 0
84822 -619 -208 -206 0
84822 208 -205 -621 0
84822 208 -205 -622 0
84822 208 -206 -620 0
84822 208 -206 -622 0
84822 208 -207 -620 0
84822 208 -207 -621 0
84822 -554 -212 -209 0
84822 -554 -212 -211 0
84822 -555 -212 -209 0
84822 -555 -212 -210 0
84822 -556 -212 -210 0
84822 -556 -212 -211 0
84822 212 -209 -557 0
84822 212 -209 -558 0
84822 212 -210 -558 0
84822 212 -210 -559 0
84822 212 -211 -557 0
84822 212 -211 -559 0
84822 -623 -216 -213 0
84822 -623 -216 -215 0
84822 -624 -216 -213 0
84822 -624 -216 -214 0
84822 -625 -216 -214 0
84822 -625 -216 -215 0
84822 216 -213 -626 0
84822 216 -213 -627 0
84822 216 -214 -627 0
84822 216 -214 -628 0
84822 216 -215 -626 0
84822 216 -215 -628 0
84822 560 -218 -217 0
84822 -560 -218 217 0
84822 218 217 -561 0
84822 218 -217 561 0
84822 629 -220 -219 0
84822 -629 -220 219 0
84822 220 219 -630 0
84822 220 -219 630 0
84822 -562 -222 -221 0
84822 -563 -222 221 0
84822 -564 -222 -221 0
84822 222 221 -566 0
84822 222 -221 -565 0
84822 222 -221 -567 0
84822 -631 -224 -223 0
84822 -632 -224 223 0
84822 -633 -224 -223 0
84822 224 223 -635 0
84822 224 -223 -634 0
84822 224 -223 -636 0
84822 568 -226 -225 0
84822 -568 -226 225 0
84822 226 225 -569 0
84822 226 -225 569 0
84822 637 -228 -227 0
84822 -637 -228 227 0
84822 228 227 -638 0
84822 228 -227 638 0
84822 249 -234 -233 0
84822 -249 -234 233 0
84822 234 233 -251 0
84822 234 -233 251 0
84822 -271 -238 0
84822 -271 -238 237 0
84822 -271 -238 -237 0
84822 -272 -238 -237 0
84822 -273 -238 237 0
84822 238 -275 0
84822 238 237 -275 0
84822 238 237 -277 0
84822 238 -237 -275 0
84822 238 -237 -276 0
84822 297 -242 -241 0
84822 -297 -242 241 0
84822 242 241 -299 0
84822 242 -241 299 0
84822 303 -244 -243 0
84822 -303 -244 243 0
84822 244 243 -305 0
84822 244 -243 305 0
84822 512 -250 -249 0
84822 -512 -250 249 0
84822 250 249 -513 0
84822 250 -249 513 0
84822 581 -252 -251 0
84822 -581 -252 251 0
84822 252 251 -582 0
84822 252 -251 582 0
84822 516 -256 -255 0
84822 -516 -256 255 0
84822 256 255 -517 0
84822 256 -255 517 0
84822 585 -258 -257 0
84822 -585 -258 257 0
84822 258 257 -586 0
84822 258 -257 586 0
84822 -520 -262 0
84822 -520 -262 261 0
84822 -520 -262 -261 0
84822 -521 -262 -261 0
84822 -522 -262 261 0
84822 262 -523 0
84822 262 261 -523 0
84822 262 261 -525 0
84822 262 -261 -523 0
84822 262 -261 -524 0
84822 -589 -264 0
84822 -589 -264 263 0
84822 -589 -264 -263 0
84822 -590 -264 -263 0
84822 -591 -264 263 0
84822 264 -592 0
84822 264 263 -592 0
84822 264 263 -594 0
84822 264 -263 -592 0
84822 264 -263 -593 0
84822 -536 -274 -272 0
84822 -536 -274 -273 0
84822 -537 -274 -271 0
84822 -537 -274 -273 0
84822 -538 -274 -271 0
84822 -538 -274 -272 0
84822 274 -271 -540 0
84822 274 -271 -541 0
84822 274 -272 -539 0
84822 274 -272 -541 0
84822 274 -273 -539 0
84822 274 -273 -540 0
84822 -605 -278 -276 0
84822 -605 -278 -277 0
84822 -606 -278 -275 0
84822 -606 -278 -277 0
84822 -607 -278 -275 0
84822 -607 -278 -276 0
84822 278 -275 -609 0
84822 278 -275 -610 0
84822 278 -276 -608 0
84822 278 -276 -610 0
84822 278 -277 -608 0
84822 278 -277 -609 0
84822 546 -284 -283 0
84822 -546 -284 283 0
84822 284 283 -547 0
84822 284 -283 547 0
84822 615 -286 -285 0
84822 -615 -286 285 0
84822 286 285 -616 0
84822 286 -285 616 0
84822 -548 -288 0
84822 -548 -288 287 0
84822 -548 -288 -287 0
84822 -549 -288 -287 0
84822 -550 -288 287 0
84822 288 -551 0
84822 288 287 -551 0
84822 288 287 -553 0
84822 288 -287 -551 0
84822 288 -287 -552 0
84822 -617 -290 0
84822 -617 -290 289 0
84822 -617 -290 -289 0
84822 -618 -290 -289 0
84822 -619 -290 289 0
84822 290 -620 0
84822 290 289 -620 0
84822 290 289 -622 0
84822 290 -289 -620 0
84822 290 -289 -621 0
84822 -554 -292 -291 0
84822 -555 -292 291 0
84822 -556 -292 -291 0
84822 292 291 -558 0
84822 292 -291 -557 0
84822 292 -291 -559 0
84822 -623 -294 -293 0
84822 -624 -294 293 0
84822 -625 -294 -293 0
84822 294 293 -627 0
84822 294 -293 -626 0
84822 294 -293 -628 0
84822 -562 -298 0
84822 -562 -298 297 0
84822 -562 -298 -297 0
84822 -563 -298 -297 0
84822 -564 -298 297 0
84822 298 -565 0
84822 298 297 -565 0
84822 298 297 -567 0
84822 298 -297 -565 0
84822 298 -297 -566 0
84822 -631 -300 0
84822 -631 -300 299 0
84822 -631 -300 -299 0
84822 -632 -300 -299 0
84822 -633 -300 299 0
84822 300 -634 0
84822 300 299 -634 0
84822 300 299 -636 0
84822 300 -299 -634 0
84822 300 -299 -635 0
84822 336 -312 -311 0
84822 -336 -312 311 0
84822 312 311 -338 0
84822 312 -311 338 0
84822 -361 -320 0
84822 -361 -320 319 0
84822 -361 -320 -319 0
84822 -362 -320 -319 0
84822 -363 -320 319 0
84822 320 319 -365 0
84822 320 -319 365 0
84822 377 -325 -324 0
84822 -377 -325 324 0
84822 325 324 -379 0
84822 325 -324 379 0
84822 -412 -327 -326 0
84822 -413 -327 -326 0
84822 -414 -327 326 0
84822 327 326 -418 0
84822 327 -326 -416 0
84822 327 -326 -417 0
84822 642 -329 -328 0
84822 -642 -329 328 0
84822 329 328 -643 0
84822 329 -328 643 0
84822 420 -331 -330 0
84822 -420 -331 330 0
84822 331 330 -422 0
84822 331 -330 422 0
84822 424 -333 -332 0
84822 -424 -333 332 0
84822 333 332 -426 0
84822 333 -332 426 0
84822 428 -335 -334 0
84822 -428 -335 334 0
84822 335 334 -430 0
84822 335 -334 430 0
84822 432 -337 -336 0
84822 -432 -337 336 0
84822 337 336 -434 0
84822 337 -336 434 0
84822 644 -339 -338 0
84822 -644 -339 338 0
84822 339 338 -645 0
84822 339 -338 645 0
84822 436 -341 -340 0
84822 -436 -341 340 0
84822 341 340 -438 0
84822 341 -340 438 0
84822 -440 -345 -343 0
84822 -440 -345 -344 0
84822 -441 -345 -342 0
84822 -441 -345 -344 0
84822 -442 -345 -342 0
84822 -442 -345 -343 0
84822 345 -342 -445 0
84822 345 -342 -446 0
84822 345 -343 -444 0
84822 345 -343 -446 0
84822 345 -344 -444 0
84822 345 -344 -445 0
84822 -448 -347 -346 0
84822 -449 -347 346 0
84822 -450 -347 -346 0
84822 347 346 -453 0
84822 347 -346 -452 0
84822 347 -346 -454 0
84822 646 -349 348 0
84822 -646 -349 -348 0
84822 349 348 647 0
84822 349 -348 -647 0
84822 456 -351 -350 0
84822 -456 -351 350 0
84822 351 350 -458 0
84822 351 -350 458 0
84822 648 -353 352 0
84822 -648 -353 -352 0
84822 353 352 649 0
84822 353 -352 -649 0
84822 460 -355 -354 0
84822 -460 -355 354 0
84822 355 354 -462 0
84822 355 -354 462 0
84822 464 -357 -356 0
84822 -464 -357 356 0
84822 357 356 -466 0
84822 357 -356 466 0
84822 468 -359 -358 0
84822 -468 -359 358 0
84822 359 358 -470 0
84822 359 -358 470 0
84822 -480 -364 -362 0
84822 -480 -364 -363 0
84822 -481 -364 -361 0
84822 -481 -364 -363 0
84822 -482 -364 -361 0
84822 -482 -364 -362 0
84822 364 -361 -485 0
84822 364 -361 -486 0
84822 364 -362 -484 0
84822 364 -362 -486 0
84822 364 -363 -484 0
84822 364 -363 -485 0
84822 650 -366 -365 0
84822 -650 -366 365 0
84822 366 365 -651 0
84822 366 -365 651 0
84822 488 -368 -367 0
84822 -488 -368 367 0
84822 368 367 -490 0
84822 368 -367 490 0
84822 652 -370 369 0
84822 -652 -370 -369 0
84822 370 369 653 0
84822 370 -369 -653 0
84822 492 -372 -371 0
84822 -492 -372 371 0
84822 372 371 -494 0
84822 372 -371 494 0
84822 654 -374 -373 0
84822 -654 -374 373 0
84822 374 373 -655 0
84822 374 -373 655 0
84822 496 -376 -375 0
84822 -496 -376 375 0
84822 376 375 -498 0
84822 376 -375 498 0
84822 500 -378 -377 0
84822 -500 -378 377 0
84822 378 377 -502 0
84822 378 -377 502 0
84822 -412 -382 0
84822 -412 -382 381 0
84822 -412 -382 -381 0
84822 -413 -382 -381 0
84822 -414 -382 381 0
84822 382 -416 0
84822 382 381 -416 0
84822 382 381 -418 0
84822 382 -381 -416 0
84822 382 -381 -417 0
84822 642 -384 -383 0
84822 -642 -384 383 0
84822 384 383 -643 0
84822 384 -383 643 0
84822 -448 -393 0
84822 -448 -393 392 0
84822 -448 -393 -392 0
84822 -449 -393 -392 0
84822 -450 -393 392 0
84822 393 -452 0
84822 393 392 -452 0
84822 393 392 -454 0
84822 393 -392 -452 0
84822 393 -392 -453 0
84822 646 -395 -394 0
84822 -646 -395 394 0
84822 395 394 -647 0
84822 395 -394 647 0
199 500 -408 0
199 500 409 408 0
84822 500 -409 -408 0
84822 -500 -409 408 0
199 -408 502 0
84822 409 408 -502 0
84822 409 -408 502 0
199 -409 408 502 0
84822 -504 -415 -413 0
84822 -504 -415 -414 0
84822 -505 -415 -412 0
84822 -505 -415 -414 0
84822 -506 -415 -412 0
84822 -506 -415 -413 0
84822 415 -412 -508 0
84822 415 -412 -509 0
84822 415 -413 -507 0
84822 415 -413 -509 0
84822 415 -414 -507 0
84822 415 -414 -508 0
84822 -573 -419 -417 0
84822 -573 -419 -418 0
84822 -574 -419 -416 0
84822 -574 -419 -418 0
84822 -575 -419 -416 0
84822 -575 -419 -417 0
84822 419 -416 -577 0
84822 419 -416 -578 0
84822 419 -417 -576 0
84822 419 -417 -578 0
84822 419 -418 -576 0
84822 419 -418 -577 0
84822 510 -421 -420 0
84822 -510 -421 420 0
84822 421 420 -511 0
84822 421 -420 511 0
84822 579 -423 -422 0
84822 -579 -423 422 0
84822 423 422 -580 0
84822 423 -422 580 0
84822 512 -425 424 0
84822 -512 -425 -424 0
84822 425 424 513 0
84822 425 -424 -513 0
84822 581 -427 426 0
84822 -581 -427 -426 0
84822 427 426 582 0
84822 427 -426 -582 0
84822 514 -429 -428 0
84822 -514 -429 428 0
84822 429 428 -515 0
84822 429 -428 515 0
84822 583 -431 -430 0
84822 -583 -431 430 0
84822 431 430 -584 0
84822 431 -430 584 0
84822 516 -433 -432 0
84822 -516 -433 432 0
84822 433 432 -517 0
84822 433 -432 517 0
84822 585 -435 -434 0
84822 -585 -435 434 0
84822 435 434 -586 0
84822 435 -434 586 0
84822 518 -437 -436 0
84822 -518 -437 436 0
84822 437 436 -519 0
84822 437 -436 519 0
84822 587 -439 -438 0
84822 -587 -439 438 0
84822 439 438 -588 0
84822 439 -438 588 0
84822 -520 -443 -440 0
84822 -520 -443 -442 0
84822 -521 -443 -440 0
84822 -521 -443 -441 0
84822 -522 -443 -441 0
84822 -522 -443 -442 0
84822 443 -440 -523 0
84822 443 -440 -524 0
84822 443 -441 -524 0
84822 443 -441 -525 0
84822 443 -442 -523 0
84822 443 -442 -525 0
84822 -589 -447 -444 0
84822 -589 -447 -446 0
84822 -590 -447 -444 0
84822 -590 -447 -445 0
84822 -591 -447 -445 0
84822 -591 -447 -446 0
84822 447 -444 -592 0
84822 447 -444 -593 0
84822 447 -445 -593 0
84822 447 -445 -594 0
84822 447 -446 -592 0
84822 447 -446 -594 0
84822 -526 -451 -449 0
84822 -526 -451 -450 0
84822 -527 -451 -448 0
84822 -527 -451 -450 0
84822 -528 -451 -448 0
84822 -528 -451 -449 0
84822 451 -448 -530 0
84822 451 -448 -531 0
84822 451 -449 -529 0
84822 451 -449 -531 0
84822 451 -450 -529 0
84822 451 -450 -530 0
84822 -595 -455 -453 0
84822 -595 -455 -454 0
84822 -596 -455 -452 0
84822 -596 -455 -454 0
84822 -597 -455 -452 0
84822 -597 -455 -453 0
84822 455 -452 -599 0
84822 455 -452 -600 0
84822 455 -453 -598 0
84822 455 -453 -600 0
84822 455 -454 -598 0
84822 455 -454 -599 0
84822 532 -457 456 0
84822 -532 -457 -456 0
84822 457 456 533 0
84822 457 -456 -533 0
84822 601 -459 458 0
84822 -601 -459 -458 0
84822 459 458 602 0
84822 459 -458 -602 0
84822 534 -461 -460 0
84822 -534 -461 460 0
84822 461 460 -535 0
84822 461 -460 535 0
84822 603 -463 -462 0
84822 -603 -463 462 0
84822 463 462 -604 0
84822 463 -462 604 0
84822 542 -465 -464 0
84822 -542 -465 464 0
84822 465 464 -543 0
84822 465 -464 543 0
84822 611 -467 -466 0
84822 -611 -467 466 0
84822 467 466 -612 0
84822 467 -466 612 0
84822 544 -469 -468 0
84822 -544 -469 468 0
84822 469 468 -545 0
84822 469 -468 545 0
84822 613 -471 -470 0
84822 -613 -471 470 0
84822 471 470 -614 0
84822 471 -470 614 0
84822 546 -473 472 0
84822 -546 -473 -472 0
84822 473 472 547 0
84822 473 -472 -547 0
84822 615 -475 474 0
84822 -615 -475 -474 0
84822 475 474 616 0
84822 475 -474 -616 0
84822 -548 -477 -476 0
84822 -549 -477 -476 0
84822 -550 -477 476 0
84822 477 476 -553 0
84822 477 -476 -551 0
84822 477 -476 -552 0
84822 -617 -479 -478 0
84822 -618 -479 -478 0
84822 -619 -479 478 0
84822 479 478 -622 0
84822 479 -478 -620 0
84822 479 -478 -621 0
84822 -554 -483 -480 0
84822 -554 -483 -482 0
84822 -555 -483 -481 0
84822 -555 -483 -482 0
84822 -556 -483 -480 0
84822 -556 -483 -481 0
84822 483 -480 -557 0
84822 483 -480 -559 0
84822 483 -481 -558 0
84822 483 -481 -559 0
84822 483 -482 -557 0
84822 483 -482 -558 0
84822 -623 -487 -484 0
84822 -623 -487 -486 0
84822 -624 -487 -485 0
84822 -624 -487 -486 0
84822 -625 -487 -484 0
84822 -625 -487 -485 0
84822 487 -484 -626 0
84822 487 -484 -628 0
84822 487 -485 -627 0
84822 487 -485 -628 0
84822 487 -486 -626 0
84822 487 -486 -627 0
84822 560 -489 -488 0
84822 -560 -489 488 0
84822 489 488 -561 0
84822 489 -488 561 0
84822 629 -491 -490 0
84822 -629 -491 490 0
84822 491 490 -630 0
84822 491 -490 630 0
84822 -562 -493 -492 0
84822 -563 -493 -492 0
84822 -564 -493 492 0
84822 493 492 -567 0
84822 493 -492 -565 0
84822 493 -492 -566 0
84822 -631 -495 -494 0
84822 -632 -495 -494 0
84822 -633 -495 494 0
84822 495 494 -636 0
84822 495 -494 -634 0
84822 495 -494 -635 0
84822 568 -497 -496 0
84822 -568 -497 496 0
84822 497 496 -569 0
84822 497 -496 569 0
84822 637 -499 -498 0
84822 -637 -499 498 0
84822 499 498 -638 0
84822 499 -498 638 0
218 467 -463 0
218 -467 463 0
218 465 -461 0
218 -465 461 0
218 411 -407 0
218 -411 407 0
218 409 -406 0
218 -409 406 0
218 398 -399 0
218 -398 399 0
218 397 -403 0
218 -397 403 0
218 389 -395 0
218 -389 395 0
218 384 -389 0
218 -384 389 0
218 364 -360 0
218 -364 360 0
218 357 -355 0
218 -357 355 0
218 353 -366 0
218 -353 366 0
218 339 -349 0
218 -339 349 0
218 329 -339 0
218 -329 339 0
436 358 -318 0
436 318 -317 0
218 244 -242 0
218 -244 242 0
218 242 -240 0
218 -242 240 0
218 240 -239 0
218 -240 239 0
218 238 -239 0
218 -238 239 0
218 236 -238 0
218 -236 238 0
218 236 -235 0
218 -236 235 0
218 235 -234 0
218 -235 234 0
218 130 -136 0
218 -130 136 0
218 128 -132 0
218 -128 132 0
218 120 -118 0
218 -120 118 0
218 116 -130 0
218 -116 130 0
218 116 -110 0
218 -116 110 0
218 92 -100 0
218 -92 100 0
218 80 -82 0
218 -80 82 0
218 72 -70 0
218 -72 70 0
199 48 -49 0
237 -48 49 0
246 45 -44 0
190 -45 44 0
218 51 -39 0
218 28 -34 0
218 -28 34 0
218 19 -28 0
218 -19 28 0
218 19 -14 0
218 -19 14 0
218 2 -6 0
218 -2 6 0
218 380 -374 0
218 -380 374 0
10 -50 -85 0
246 40 -39 0
190 -40 39 0
190 40 -41 0
246 -40 41 0
218 56 -54 0
218 -56 54 0
28 39 0
108 139 0
10 -243 0
218 307 0
218 320 0
209 -324 0
10 500 0
10 502 0
177 -504 0
251 -505 0
177 -507 0
251 -508 0
133 510 0
133 511 0
158 -512 0
158 -513 0
260 514 0
260 515 0
33 516 0
33 517 0
72 518 0
72 519 0
192 -520 0
247 -522 0
192 -523 0
247 -525 0
459 -526 0
96 -528 0
459 -529 0
96 -531 0
149 -532 0
149 -533 0
199 534 0
199 535 0
103 -536 0
58 -537 0
103 -539 0
58 -540 0
621 542 0
621 543 0
250 544 0
250 545 0
9 546 0
9 547 0
167 -548 0
73 -549 0
167 -551 0
73 -552 0
120 -554 0
72 -555 0
120 -557 0
72 -558 0
146 560 0
146 561 0
140 -562 0
9 -563 0
140 -565 0
9 -566 0
281 568 0
281 569 0
177 -573 0
251 -574 0
177 -576 0
251 -577 0
133 579 0
133 580 0
158 -581 0
158 -582 0
260 583 0
260 584 0
33 585 0
33 586 0
72 587 0
72 588 0
192 -589 0
247 -591 0
192 -592 0
247 -594 0
459 -595 0
96 -597 0
459 -598 0
96 -600 0
149 -601 0
149 -602 0
199 603 0
199 604 0
103 -605 0
58 -606 0
103 -608 0
58 -609 0
621 611 0
621 612 0
250 613 0
250 614 0
9 615 0
9 616 0
167 -617 0
73 -618 0
167 -620 0
73 -621 0
120 -623 0
72 -624 0
120 -626 0
72 -627 0
146 629 0
146 630 0
140 -631 0
9 -632 0
140 -634 0
9 -635 0
281 637 0
281 638 0
251 642 0
251 643 0
33 644 0
33 645 0
96 -646 0
96 -647 0
149 -648 0
149 -649 0
200 -652 0
200 -653 0
9 654 0
9 655 0
133 -659 0
133 -660 0
72 663 0
72 664 0
192 665 0
192 666 0
149 -667 0
149 -668 0
73 669 0
73 670 0
281 671 0
281 672 0
